(set-info :source |printed by MathSAT|)
(declare-fun .PC.1 () Bool)
(declare-fun .PC.2 () Bool)
(declare-fun .PC.0 () Bool)
(declare-fun j__10$main.next () (_ BitVec 32))
(declare-fun l__4$main.next () (_ BitVec 32))
(declare-fun .PC.1.next () Bool)
(declare-fun .PC.2.next () Bool)
(declare-fun n__2$main () (_ BitVec 32))
(declare-fun __RET__$main () (_ BitVec 32))
(declare-fun r__6$main.next () (_ BitVec 32))
(declare-fun r__6$main.SSA.1.ssa () (_ BitVec 32))
(declare-fun l__4$main.SSA.1.ssa () (_ BitVec 32))
(declare-fun __RET__$main.next () (_ BitVec 32))
(declare-fun |__NONDET_INLINE_INIT__3__7$main#0| () (_ BitVec 32))
(declare-fun j__10$main () (_ BitVec 32))
(declare-fun .PC.0.next () Bool)
(declare-fun n__2$main.next () (_ BitVec 32))
(declare-fun l__4$main () (_ BitVec 32))
(declare-fun r__6$main () (_ BitVec 32))
(define-fun .def_13 () Bool (! .PC.0 :next |.PC.0.next|))
(define-fun .def_14 () Bool (not .def_13))
(define-fun .def_11 () Bool (! .PC.1 :next |.PC.1.next|))
(define-fun .def_12 () Bool (not .def_11))
(define-fun .def_15 () Bool (and .def_12 .def_14))
(define-fun .def_9 () Bool (! .PC.2 :next |.PC.2.next|))
(define-fun .def_10 () Bool (not .def_9))
(define-fun .def_16 () Bool (! (and .def_10 .def_15) :init true))
(define-fun .def_136 () Bool (= r__6$main.next r__6$main.SSA.1.ssa))
(define-fun .def_126 () Bool (= n__2$main.next r__6$main.SSA.1.ssa))
(define-fun .def_123 () Bool (= n__2$main.next |__NONDET_INLINE_INIT__3__7$main#0|))
(define-fun .def_120 () Bool (bvslt n__2$main.next (_ bv1 32)))
(define-fun .def_121 () Bool (not .def_120))
(define-fun .def_124 () Bool (and .def_121 .def_123))
(define-fun .def_117 () (_ BitVec 32) (bvsdiv n__2$main.next (_ bv2 32)))
(define-fun .def_118 () (_ BitVec 32) (bvadd (_ bv1 32) .def_117))
(define-fun .def_119 () Bool (= l__4$main.SSA.1.ssa .def_118))
(define-fun .def_125 () Bool (and .def_119 .def_124))
(define-fun .def_127 () Bool (and .def_125 .def_126))
(define-fun .def_114 () Bool (bvslt (_ bv1 32) l__4$main.SSA.1.ssa))
(define-fun .def_134 () Bool (and .def_114 .def_127))
(define-fun .def_132 () (_ BitVec 32) (bvadd (_ bv4294967295 32) l__4$main.SSA.1.ssa))
(define-fun .def_133 () Bool (= l__4$main.next .def_132))
(define-fun .def_135 () Bool (and .def_133 .def_134))
(define-fun .def_137 () Bool (and .def_135 .def_136))
(define-fun .def_130 () Bool (= l__4$main.next l__4$main.SSA.1.ssa))
(define-fun .def_115 () Bool (not .def_114))
(define-fun .def_128 () Bool (and .def_115 .def_127))
(define-fun .def_111 () (_ BitVec 32) (bvadd (_ bv4294967295 32) r__6$main.SSA.1.ssa))
(define-fun .def_112 () Bool (= r__6$main.next .def_111))
(define-fun .def_129 () Bool (and .def_112 .def_128))
(define-fun .def_131 () Bool (and .def_129 .def_130))
(define-fun .def_138 () Bool (or .def_131 .def_137))
(define-fun .def_30 () (_ BitVec 32) (! __RET__$main :next |__RET__$main.next|))
(define-fun .def_31 () Bool (= __RET__$main.next .def_30))
(define-fun .def_139 () Bool (and .def_31 .def_138))
(define-fun .def_38 () (_ BitVec 32) (! j__10$main :next |j__10$main.next|))
(define-fun .def_39 () Bool (= j__10$main.next .def_38))
(define-fun .def_140 () Bool (and .def_39 .def_139))
(define-fun .def_49 () Bool (not .PC.2.next))
(define-fun .def_18 () Bool (not .PC.1.next))
(define-fun .def_20 () Bool (and .def_18 .PC.0.next))
(define-fun .def_65 () Bool (and .def_20 .def_49))
(define-fun .def_141 () Bool (and .def_65 .def_140))
(define-fun .def_142 () Bool (and .def_16 .def_141))
(define-fun .def_23 () Bool (and .def_12 .def_13))
(define-fun .def_108 () Bool (and .def_10 .def_23))
(define-fun .def_42 () (_ BitVec 32) (! r__6$main :next |r__6$main.next|))
(define-fun .def_101 () Bool (bvslt (_ bv1 32) .def_42))
(define-fun .def_34 () (_ BitVec 32) (! l__4$main :next |l__4$main.next|))
(define-fun .def_99 () (_ BitVec 32) (bvshl .def_34 (_ bv1 32)))
(define-fun .def_100 () Bool (= j__10$main.next .def_99))
(define-fun .def_102 () Bool (and .def_100 .def_101))
(define-fun .def_103 () Bool (and .def_31 .def_102))
(define-fun .def_27 () (_ BitVec 32) (! n__2$main :next |n__2$main.next|))
(define-fun .def_28 () Bool (= n__2$main.next .def_27))
(define-fun .def_104 () Bool (and .def_28 .def_103))
(define-fun .def_35 () Bool (= l__4$main.next .def_34))
(define-fun .def_105 () Bool (and .def_35 .def_104))
(define-fun .def_43 () Bool (= r__6$main.next .def_42))
(define-fun .def_106 () Bool (and .def_43 .def_105))
(define-fun .def_48 () Bool (and .PC.1.next .PC.0.next))
(define-fun .def_50 () Bool (and .def_48 .def_49))
(define-fun .def_107 () Bool (and .def_50 .def_106))
(define-fun .def_109 () Bool (and .def_107 .def_108))
(define-fun .def_143 () Bool (or .def_109 .def_142))
(define-fun .def_69 () Bool (bvslt (_ bv1 32) .def_34))
(define-fun .def_51 () Bool (bvslt .def_42 .def_38))
(define-fun .def_78 () Bool (and .def_51 .def_69))
(define-fun .def_76 () Bool (bvslt .def_27 .def_34))
(define-fun .def_91 () Bool (and .def_76 .def_78))
(define-fun .def_92 () Bool (and .def_31 .def_91))
(define-fun .def_93 () Bool (and .def_28 .def_92))
(define-fun .def_94 () Bool (and .def_35 .def_93))
(define-fun .def_95 () Bool (and .def_39 .def_94))
(define-fun .def_96 () Bool (and .def_43 .def_95))
(define-fun .def_88 () Bool (not .PC.0.next))
(define-fun .def_89 () Bool (and .def_18 .def_88))
(define-fun .def_90 () Bool (and .PC.2.next .def_89))
(define-fun .def_97 () Bool (and .def_90 .def_96))
(define-fun .def_62 () Bool (and .def_11 .def_13))
(define-fun .def_63 () Bool (and .def_10 .def_62))
(define-fun .def_98 () Bool (and .def_63 .def_97))
(define-fun .def_144 () Bool (or .def_98 .def_143))
(define-fun .def_77 () Bool (not .def_76))
(define-fun .def_79 () Bool (and .def_77 .def_78))
(define-fun .def_74 () (_ BitVec 32) (bvadd (_ bv4294967295 32) .def_34))
(define-fun .def_75 () Bool (= l__4$main.next .def_74))
(define-fun .def_80 () Bool (and .def_75 .def_79))
(define-fun .def_81 () Bool (and .def_43 .def_80))
(define-fun .def_70 () Bool (not .def_69))
(define-fun .def_71 () Bool (and .def_51 .def_70))
(define-fun .def_67 () (_ BitVec 32) (bvadd (_ bv4294967295 32) .def_42))
(define-fun .def_68 () Bool (= r__6$main.next .def_67))
(define-fun .def_72 () Bool (and .def_68 .def_71))
(define-fun .def_73 () Bool (and .def_35 .def_72))
(define-fun .def_82 () Bool (or .def_73 .def_81))
(define-fun .def_83 () Bool (and .def_31 .def_82))
(define-fun .def_84 () Bool (and .def_28 .def_83))
(define-fun .def_85 () Bool (and .def_39 .def_84))
(define-fun .def_86 () Bool (and .def_65 .def_85))
(define-fun .def_87 () Bool (and .def_63 .def_86))
(define-fun .def_145 () Bool (or .def_87 .def_144))
(define-fun .def_54 () (_ BitVec 32) (bvshl .def_38 (_ bv1 32)))
(define-fun .def_55 () Bool (= j__10$main.next .def_54))
(define-fun .def_52 () Bool (not .def_51))
(define-fun .def_56 () Bool (and .def_52 .def_55))
(define-fun .def_57 () Bool (and .def_31 .def_56))
(define-fun .def_58 () Bool (and .def_28 .def_57))
(define-fun .def_59 () Bool (and .def_35 .def_58))
(define-fun .def_60 () Bool (and .def_43 .def_59))
(define-fun .def_61 () Bool (and .def_50 .def_60))
(define-fun .def_64 () Bool (and .def_61 .def_63))
(define-fun .def_146 () Bool (or .def_64 .def_145))
(define-fun .def_46 () Bool (and .def_9 .def_15))
(define-fun .def_32 () Bool (and .def_28 .def_31))
(define-fun .def_36 () Bool (and .def_32 .def_35))
(define-fun .def_40 () Bool (and .def_36 .def_39))
(define-fun .def_44 () Bool (and .def_40 .def_43))
(define-fun .def_22 () Bool (and .def_20 .PC.2.next))
(define-fun .def_45 () Bool (and .def_22 .def_44))
(define-fun .def_47 () Bool (and .def_45 .def_46))
(define-fun .def_147 () Bool (or .def_47 .def_146))
(define-fun .def_24 () Bool (and .def_9 .def_23))
(define-fun .def_25 () Bool (and .def_22 .def_24))
(define-fun .def_148 () Bool (! (or .def_25 .def_147) :trans true))
(define-fun .def_149 () Bool (! (not .def_24) :invar-property 0))
(assert true)
